(set-info :smt-lib-version 2.6)
(set-logic QF_SNIA)
(set-info :source  | 
Generated by: Johannes Bauer
Generated on: 2026-06-21
Generator: mgm A12 Test Data Generator
Application: ELSTER
Target solver: Z3, CVC5
Script is based on the ELSTER form: capital gains tax registration (A / KapEStInvStG)
Characteristic of the form: easy.
In this script, all terms of the form (* x1 x2 x3 ...) are in the form (* x1 c2 c3 ...),
all terms of the form (div x y) are in the form (div x c) and the symbol mod is exclusively used in the form (mod x c),
where x, y, and x1, x2, x3 ... are free constants and c, c2, c3 ... are terms in the form n or (-n) for some numeral n.
The script starts with the base constraints, which define a valid data set for the corresponding form. After the first (push 1), control constraints follow.
The goal of the control constraints in this script is to fill up a data set with values, after the characteristics of the high test coverage were placed.
number variables: 76, number constraints: 140
"https://www.elster.de/eportal/start?locale=en_US"
"https://www.mgm-tp.com/q12-tdg.html"
"https://a12.ai/public-sector"
|)
(set-info :license "https://creativecommons.org/licenses/by/4.0/")
(set-info :category "industrial")
(declare-fun B1-F () Bool)
(declare-fun I1-y () Int)
(declare-fun S2-S () String)
(declare-fun I3-y () Int)
(declare-fun I3-m () Int)
(declare-fun I3-d () Int)
(declare-fun I4-y () Int)
(declare-fun I4-m () Int)
(declare-fun I4-d () Int)
(declare-fun I5 () Int)
(declare-fun I6 () Int)
(declare-fun I7-s-y () Int)
(declare-fun I7-s-m () Int)
(declare-fun I7-s-d () Int)
(declare-fun I7-e-y () Int)
(declare-fun I7-e-m () Int)
(declare-fun I7-e-d () Int)
(declare-fun I8-y () Int)
(declare-fun I8-d () Int)
(declare-fun I9-y () Int)
(declare-fun I9-m () Int)
(declare-fun I9-d () Int)
(declare-fun I10 () Int)
(declare-fun I11 () Int)
(declare-fun I12-s-y () Int)
(declare-fun I12-s-m () Int)
(declare-fun I12-s-d () Int)
(declare-fun I12-e-y () Int)
(declare-fun I12-e-m () Int)
(declare-fun I12-e-d () Int)
(declare-fun I13-y () Int)
(declare-fun I13-d () Int)
(declare-fun I14-y () Int)
(declare-fun I14-m () Int)
(declare-fun I14-d () Int)
(declare-fun I15 () Int)
(declare-fun I16 () Int)
(declare-fun I17 () Int)
(declare-fun S18-S () String)
(declare-fun I19-y () Int)
(declare-fun I19-m () Int)
(declare-fun I19-d () Int)
(declare-fun I20 () Int)
(declare-fun I21 () Int)
(declare-fun I22 () Int)
(declare-fun I23 () Int)
(declare-fun I24-y () Int)
(declare-fun I24-m () Int)
(declare-fun I24-d () Int)
(declare-fun I25 () Int)
(declare-fun I26 () Int)
(declare-fun I27 () Int)
(declare-fun B28-F () Bool)
(declare-fun I28 () Int)
(declare-fun I29 () Int)
(declare-fun I30 () Int)
(declare-fun B31-F () Bool)
(declare-fun I31-y () Int)
(declare-fun I31-m () Int)
(declare-fun I31-d () Int)
(declare-fun B32-F () Bool)
(declare-fun B33-F () Bool)
(declare-fun I33 () Int)
(declare-fun B34-F () Bool)
(declare-fun I34 () Int)
(declare-fun B35-F () Bool)
(declare-fun B36-F () Bool)
(declare-fun B37-F () Bool)
(declare-fun I37 () Int)
(declare-fun B38-F () Bool)
(declare-fun B39-F () Bool)
(declare-fun B40-F () Bool)
(declare-fun I41 () Int)
(declare-fun B42-F () Bool)
(declare-fun B43-F () Bool)
(declare-fun B44-F () Bool)
(assert (or (< 0 I19-y) (and (= 0 I19-y) (< 0 I19-m)) (and (= 0 I19-y) (= 0 I19-m) (< 0 I19-d)) (and (= 0 I19-y) (= 0 I19-m) (= 0 I19-d))))
(assert (< 0 (str.to_int (str.substr S18-S 0 4))))
(assert (or (< 0 (ite B1-F I1-y 0)) (= 0 (ite B1-F I1-y 0))))
(assert (and (<= I19-y (ite B1-F I1-y 0)) (distinct I19-y (ite B1-F I1-y 0)) (> I19-m 3)))
(assert (and (or (distinct I19-y (ite B1-F I1-y 0)) (>= I19-m (- 1))) (or (= I19-y (ite B1-F I1-y 0)) (>= I19-y (- (ite B1-F I1-y 0) 1))) (or (= I19-y (ite B1-F I1-y 0)) (distinct I19-y (- (ite B1-F I1-y 0) 1)) (<= I19-m 8) (>= I19-m 11)) (distinct I19-y (ite B1-F I1-y 0)) (= I19-y (- (ite B1-F I1-y 0) 1)) (> I19-m 8)))
(assert (and (or (distinct I19-y (ite B1-F I1-y 0)) (>= I19-m (- 1))) (distinct I19-y (ite B1-F I1-y 0)) (>= I19-y (- (ite B1-F I1-y 0) 1)) (or (= I19-y (ite B1-F I1-y 0)) (distinct I19-y (- (ite B1-F I1-y 0) 1)) (<= I19-m 8) (>= I19-m 11)) (or (= I19-y (ite B1-F I1-y 0)) (distinct I19-y (- (ite B1-F I1-y 0) 1)) (> I19-m 8))))
(assert (and (or (distinct I19-y (ite B1-F I1-y 0)) (>= I19-m (- 1))) (or (= I19-y (ite B1-F I1-y 0)) (>= I19-y (- (ite B1-F I1-y 0) 1))) (distinct I19-y (ite B1-F I1-y 0)) (= I19-y (- (ite B1-F I1-y 0) 1)) (> I19-m 8) (>= I19-m 11) (or (= I19-y (ite B1-F I1-y 0)) (distinct I19-y (- (ite B1-F I1-y 0) 1)) (> I19-m 8))))
(assert (and (distinct I20 0) (distinct I22 0)))
(assert (and (distinct I20 0) (distinct I22 0)))
(assert (and (distinct I25 0) (distinct I27 0)))
(assert (and (distinct I25 0) (distinct I27 0)))
(assert (and (distinct I25 0) (distinct I27 0)))
(assert (distinct I28 0))
(assert (> (ite (>= (- 0 (div (* I28 55) 10)) 0) (- 0 (div (* I28 55) 10)) (- (- 0 (div (* I28 55) 10)))) 100))
(assert (and (<= I24-y (ite B1-F I1-y 0)) (> I24-m 3) (distinct I24-y (ite B1-F I1-y 0))))
(assert (distinct I10 0))
(assert (distinct I10 0))
(assert (distinct I10 0))
(assert (and (>= I7-s-y (- I7-e-y 1)) (= I7-s-y (- I7-e-y 1)) (>= I7-s-m I7-e-m) (or (distinct I7-s-y (- I7-e-y 1)) (distinct I7-s-m I7-e-m) (>= I7-s-d (+ I7-e-d 1)))))
(assert (and (>= I7-s-y (- I7-e-y 1)) (or (distinct I7-s-y (- I7-e-y 1)) (>= I7-s-m I7-e-m)) (= I7-s-y (- I7-e-y 1)) (distinct I7-s-m I7-e-m) (< I7-s-d (+ I7-e-d 1))))
(assert (distinct I15 0))
(assert (distinct I15 0))
(assert (and (>= I12-s-y (- I12-e-y 1)) (= I12-s-y (- I12-e-y 1)) (>= I12-s-m I12-e-m) (or (distinct I12-s-y (- I12-e-y 1)) (distinct I12-s-m I12-e-m) (>= I12-s-d (+ I12-e-d 1)))))
(assert (and (>= I12-s-y (- I12-e-y 1)) (or (distinct I12-s-y (- I12-e-y 1)) (>= I12-s-m I12-e-m)) (= I12-s-y (- I12-e-y 1)) (distinct I12-s-m I12-e-m) (< I12-s-d (+ I12-e-d 1))))
(assert (not (or B31-F B32-F)))
(assert (= B32-F (or B33-F B34-F)))
(assert (= B42-F (or B43-F B44-F)))
(assert (ite B33-F (and (<= I33 999999999999) (>= I33 0)) (= I33 0)))
(assert (ite B34-F (and (<= I34 999999999999) (>= I34 0)) (= I34 0)))
(assert (and (<= I29 999999999999) (>= I29 (- 999999999999))))
(assert (and (<= I30 99999999999999) (>= I30 (- 99999999999999))))
(assert (and (<= I5 99999999999999) (>= I5 (- 99999999999999))))
(assert (and (<= I6 99999999999999) (>= I6 (- 99999999999999))))
(assert (and (<= I20 999999999999) (>= I20 (- 999999999999))))
(assert (and (<= I21 99999999999999) (>= I21 (- 99999999999999))))
(assert (and (<= I22 999999999999) (>= I22 (- 999999999999))))
(assert (and (<= I23 99999999999999) (>= I23 (- 99999999999999))))
(assert (and (<= I25 999999999999) (>= I25 0)))
(assert (and (<= I26 99999999999999) (>= I26 0)))
(assert (and (<= I27 999999999999) (>= I27 0)))
(assert (ite B28-F (and (<= I28 999999999999) (>= I28 (- 999999999999))) (= I28 0)))
(assert (and (<= I10 999999999999) (>= I10 (- 999999999999))))
(assert (and (<= I11 99999999999999) (>= I11 (- 99999999999999))))
(assert (and (<= I15 999999999999) (>= I15 (- 999999999999))))
(assert (and (<= I16 99999999999999) (>= I16 (- 99999999999999))))
(assert (and (<= I17 99999999999999) (>= I17 (- 99999999999999))))
(assert (ite B35-F true false))
(assert (ite B36-F true false))
(assert (ite B37-F (and (<= I37 99999999999999) (>= I37 (- 9999999999999))) (= I37 0)))
(assert (ite B39-F true false))
(assert (ite B38-F true false))
(assert (ite B40-F true false))
(assert (and (<= I41 99999999999999) (>= I41 (- 9999999999999))))
(assert (and (ite B31-F (and (> I31-y 1900) (< I31-y 2100)) (= I31-y 0)) (ite B31-F (and (> I31-m 0) (<= I31-m 12)) (= I31-m 0)) (ite B31-F (and (> I31-d 0) (<= I31-d (ite (or (= I31-m 0) (= I31-m 1) (= I31-m 3) (= I31-m 5) (= I31-m 7) (= I31-m 8) (= I31-m 10) (= I31-m 12)) 31 (ite (or (= I31-m 4) (= I31-m 6) (= I31-m 9) (= I31-m 11)) 30 (ite (= (mod I31-y 4) 0) 29 28))))) (= I31-d 0))))
(assert (ite B1-F (and (> I1-y 1900) (< I1-y 2100)) (= I1-y 0)))
(assert (and (> I4-y 1900) (< I4-y 2100) (> I4-m 0) (<= I4-m 12) (> I4-d 0) (<= I4-d (ite (or (= I4-m 0) (= I4-m 1) (= I4-m 3) (= I4-m 5) (= I4-m 7) (= I4-m 8) (= I4-m 10) (= I4-m 12)) 31 (ite (or (= I4-m 4) (= I4-m 6) (= I4-m 9) (= I4-m 11)) 30 (ite (= (mod I4-y 4) 0) 29 28))))))
(assert (and (> I3-y 1900) (< I3-y 2100) (> I3-m 0) (<= I3-m 12) (> I3-d 0) (<= I3-d (ite (or (= I3-m 0) (= I3-m 1) (= I3-m 3) (= I3-m 5) (= I3-m 7) (= I3-m 8) (= I3-m 10) (= I3-m 12)) 31 (ite (or (= I3-m 4) (= I3-m 6) (= I3-m 9) (= I3-m 11)) 30 (ite (= (mod I3-y 4) 0) 29 28))))))
(assert (and (> I19-y 1900) (< I19-y 2100) (> I19-m 0) (<= I19-m 12) (> I19-d 0) (<= I19-d (ite (or (= I19-m 0) (= I19-m 1) (= I19-m 3) (= I19-m 5) (= I19-m 7) (= I19-m 8) (= I19-m 10) (= I19-m 12)) 31 (ite (or (= I19-m 4) (= I19-m 6) (= I19-m 9) (= I19-m 11)) 30 (ite (= (mod I19-y 4) 0) 29 28))))))
(assert (and (> I24-y 1900) (< I24-y 2100) (> I24-m 0) (<= I24-m 12) (> I24-d 0) (<= I24-d (ite (or (= I24-m 0) (= I24-m 1) (= I24-m 3) (= I24-m 5) (= I24-m 7) (= I24-m 8) (= I24-m 10) (= I24-m 12)) 31 (ite (or (= I24-m 4) (= I24-m 6) (= I24-m 9) (= I24-m 11)) 30 (ite (= (mod I24-y 4) 0) 29 28))))))
(assert (and (> I9-y 1900) (< I9-y 2100) (> I9-m 0) (<= I9-m 12) (> I9-d 0) (<= I9-d (ite (or (= I9-m 0) (= I9-m 1) (= I9-m 3) (= I9-m 5) (= I9-m 7) (= I9-m 8) (= I9-m 10) (= I9-m 12)) 31 (ite (or (= I9-m 4) (= I9-m 6) (= I9-m 9) (= I9-m 11)) 30 (ite (= (mod I9-y 4) 0) 29 28))))))
(assert (and (> I8-y 1900) (< I8-y 2100) (> I8-d 0) (<= I8-d 31)))
(assert (or (< I7-s-y I7-e-y) (and (= I7-s-y I7-e-y) (< I7-s-m I7-e-m)) (and (= I7-s-y I7-e-y) (= I7-s-m I7-e-m) (<= I7-s-d I7-e-d))))
(assert (and (>= I7-e-d 1) (<= I7-e-d (ite (or (= I7-e-m 0) (= I7-e-m 1) (= I7-e-m 3) (= I7-e-m 5) (= I7-e-m 7) (= I7-e-m 8) (= I7-e-m 10) (= I7-e-m 12)) 31 (ite (or (= I7-e-m 4) (= I7-e-m 6) (= I7-e-m 9) (= I7-e-m 11)) 30 (ite (= (mod I7-e-y 4) 0) 29 28))))))
(assert (and (>= I7-e-m 1) (<= I7-e-m 12)))
(assert (and (>= I7-e-y 1901) (<= I7-e-y 2099)))
(assert (and (>= I7-s-d 1) (<= I7-s-d (ite (or (= I7-s-m 0) (= I7-s-m 1) (= I7-s-m 3) (= I7-s-m 5) (= I7-s-m 7) (= I7-s-m 8) (= I7-s-m 10) (= I7-s-m 12)) 31 (ite (or (= I7-s-m 4) (= I7-s-m 6) (= I7-s-m 9) (= I7-s-m 11)) 30 (ite (= (mod I7-s-y 4) 0) 29 28))))))
(assert (and (>= I7-s-m 1) (<= I7-s-m 12)))
(assert (and (>= I7-s-y 1901) (<= I7-s-y 2099)))
(assert (and (> I14-y 1900) (< I14-y 2100) (> I14-m 0) (<= I14-m 12) (> I14-d 0) (<= I14-d (ite (or (= I14-m 0) (= I14-m 1) (= I14-m 3) (= I14-m 5) (= I14-m 7) (= I14-m 8) (= I14-m 10) (= I14-m 12)) 31 (ite (or (= I14-m 4) (= I14-m 6) (= I14-m 9) (= I14-m 11)) 30 (ite (= (mod I14-y 4) 0) 29 28))))))
(assert (and (> I13-y 1900) (< I13-y 2100) (> I13-d 0) (<= I13-d 31)))
(assert (or (< I12-s-y I12-e-y) (and (= I12-s-y I12-e-y) (< I12-s-m I12-e-m)) (and (= I12-s-y I12-e-y) (= I12-s-m I12-e-m) (<= I12-s-d I12-e-d))))
(assert (and (>= I12-e-d 1) (<= I12-e-d (ite (or (= I12-e-m 0) (= I12-e-m 1) (= I12-e-m 3) (= I12-e-m 5) (= I12-e-m 7) (= I12-e-m 8) (= I12-e-m 10) (= I12-e-m 12)) 31 (ite (or (= I12-e-m 4) (= I12-e-m 6) (= I12-e-m 9) (= I12-e-m 11)) 30 (ite (= (mod I12-e-y 4) 0) 29 28))))))
(assert (and (>= I12-e-m 1) (<= I12-e-m 12)))
(assert (and (>= I12-e-y 1901) (<= I12-e-y 2099)))
(assert (and (>= I12-s-d 1) (<= I12-s-d (ite (or (= I12-s-m 0) (= I12-s-m 1) (= I12-s-m 3) (= I12-s-m 5) (= I12-s-m 7) (= I12-s-m 8) (= I12-s-m 10) (= I12-s-m 12)) 31 (ite (or (= I12-s-m 4) (= I12-s-m 6) (= I12-s-m 9) (= I12-s-m 11)) 30 (ite (= (mod I12-s-y 4) 0) 29 28))))))
(assert (and (>= I12-s-m 1) (<= I12-s-m 12)))
(assert (and (>= I12-s-y 1901) (<= I12-s-y 2099)))
(assert (and (> (str.to_int S2-S) 1900) (< (str.to_int S2-S) 2100)))
(assert (and (> (str.to_int S2-S) 1900) (< (str.to_int S2-S) 2100)))
(assert (and (str.in_re S2-S (re.+ (re.range "0" "9"))) (>= (str.len S2-S) 4) (<= (str.len S2-S) 4)))
(assert (and (str.in_re S18-S (re.+ (re.range "0" "9"))) (>= (str.len S18-S) 4) (<= (str.len S18-S) 4)))
(assert (not (and B34-F B33-F (distinct I33 0) (distinct I34 (div (* I33 15) 100)))))
(assert (not (and B31-F (or (< I31-y 2025) (> I31-y 2025)))))
(assert (not (and (or B44-F B43-F) (not (and B44-F B43-F)))))
(assert (not (distinct I29 (+ I10 I15 I20 I22 I25 I27 I28 (- 928285098678)))))
(assert (not (distinct I30 (+ I5 I6 I11 I16 I17 I21 I23 I26 1))))
(assert (not (and B1-F (or (< I1-y 2025) (> I1-y 2025)))))
(assert (not (or (> I4-y I3-y) (and (= I4-y I3-y) (> I4-m I3-m)) (and (= I4-y I3-y) (= I4-m I3-m) (> I4-d I3-d)))))
(assert (not (or (distinct I3-y (ite B1-F I1-y 0)) (distinct I3-m 3))))
(assert (not (>= (ite (and (>= (str.to_int S2-S) 1) (<= (str.to_int S2-S) 9999)) (+ (- I4-y (str.to_int S2-S)) (ite (or (< (str.to_int S2-S) I4-y) (and (= (str.to_int S2-S) I4-y) (< 5 I4-m)) (and (= (str.to_int S2-S) I4-y) (= 5 I4-m) (< 1 I4-d)) (and (= (str.to_int S2-S) I4-y) (= 5 I4-m) (= 1 I4-d))) (ite (or (< 5 I4-m) (and (= 5 I4-m) (<= 1 I4-d))) 0 (- 1)) (ite (or (> 5 I4-m) (and (= 5 I4-m) (>= 1 I4-d))) 0 1))) 0) 1)))
(assert (not (< I3-y (str.to_int (str.substr S2-S 0 4)))))
(assert (not (> (str.to_int (str.substr S2-S 0 4)) 2025)))
(assert (not (> (ite (>= (- I5 394431939720) 0) (- I5 394431939720) (- (- I5 394431939720))) 100)))
(assert (not (> (ite (>= (- I6 17550) 0) (- I6 17550) (- (- I6 17550))) 100)))
(assert (not (distinct I19-y (str.to_int (str.substr S18-S 0 4)))))
(assert (not (or (> I19-y (ite B1-F I1-y 0)) (and (= I19-y (ite B1-F I1-y 0)) (> I19-m 3)))))
(assert (not (> (str.to_int (str.substr S18-S 0 4)) 2025)))
(assert (not (or (and (or (< I19-y 2022) (and (= I19-y 2022) (< I19-m 10)) (and (= I19-y 2022) (= I19-m 10) (< I19-d 1))) (< (str.to_int (str.substr S18-S 0 4)) 2025)) (and (or (> I19-y 2022) (and (= I19-y 2022) (> I19-m 10)) (and (= I19-y 2022) (= I19-m 10) (> I19-d 1)) (and (= I19-y 2022) (= I19-m 10) (= I19-d 1))) (< (str.to_int (str.substr S18-S 0 4)) 2025) (distinct (str.to_int (str.substr S18-S 0 4)) 2024)))))
(assert (not (or (and (= I19-y (ite B1-F I1-y 0)) (< I19-m (- 1))) (and (distinct I19-y (ite B1-F I1-y 0)) (< I19-y (- (ite B1-F I1-y 0) 1))) (and (distinct I19-y (ite B1-F I1-y 0)) (= I19-y (- (ite B1-F I1-y 0) 1)) (> I19-m 8) (< I19-m 11)) (and (distinct I19-y (ite B1-F I1-y 0)) (= I19-y (- (ite B1-F I1-y 0) 1)) (<= I19-m 8)))))
(assert (not (or (= I20 0) (= I22 0))))
(assert (not (> (ite (>= (- I21 (div (* I20 55) 10)) 0) (- I21 (div (* I20 55) 10)) (- (- I21 (div (* I20 55) 10)))) 100)))
(assert (not (or (> (* I20 100) 15000000000085) (> (* I22 100) 15000000000085))))
(assert (not (> (ite (>= (- I23 (div (* I22 55) 10)) 0) (- I23 (div (* I22 55) 10)) (- (- I23 (div (* I22 55) 10)))) 100)))
(assert (not (or (= I25 0) (= I27 0))))
(assert (not (> (ite (>= (- I26 (div (* I25 55) 10)) 0) (- I26 (div (* I25 55) 10)) (- (- I26 (div (* I25 55) 10)))) 100)))
(assert (not (or (> (* I25 100) 15000000000085) (> (* I27 100) 64682078050))))
(assert (not (> (ite (>= (- 0 (div (* I27 55) 10)) 0) (- 0 (div (* I27 55) 10)) (- (- 0 (div (* I27 55) 10)))) 100)))
(assert (not (= I28 0)))
(assert (not (and B28-F (> (* I28 100) 15000000000085))))
(assert (not (or (> I24-y (ite B1-F I1-y 0)) (and (> I24-m 3) (= I24-y (ite B1-F I1-y 0))))))
(assert (not (or (> I9-y I8-y) (and (= I9-y I8-y) (> I9-m 3)) (and (= I9-y I8-y) (= I9-m 3) (> I9-d I8-d)))))
(assert (not (distinct I8-y (ite B1-F I1-y 0))))
(assert (not (< I8-y 2025)))
(assert (not (= I10 0)))
(assert (not (> (ite (>= (- I11 (div (* I10 55) 10)) 0) (- I11 (div (* I10 55) 10)) (- (- I11 (div (* I10 55) 10)))) 100)))
(assert (not (> (* I10 100) 13917953529820)))
(assert (not (or (> I7-e-y I8-y) (and (= I7-e-y I8-y) (> I7-e-m 3)) (and (= I7-e-y I8-y) (= I7-e-m 3) (> I7-e-d I8-d)))))
(assert (not (or (< I7-s-y (- I7-e-y 1)) (and (= I7-s-y (- I7-e-y 1)) (< I7-s-m I7-e-m)) (and (= I7-s-y (- I7-e-y 1)) (= I7-s-m I7-e-m) (< I7-s-d (+ I7-e-d 1))))))
(assert (not (or (> I14-y I13-y) (and (= I14-y I13-y) (> I14-m 3)) (and (= I14-y I13-y) (= I14-m 3) (> I14-d I13-d)))))
(assert (not (distinct I13-y (ite B1-F I1-y 0))))
(assert (not (< I13-y 2025)))
(assert (not (= I15 0)))
(assert (not (> (ite (>= (- I16 (div (* I15 55) 10)) 0) (- I16 (div (* I15 55) 10)) (- (- I16 (div (* I15 55) 10)))) 100)))
(assert (not (> (* I15 100) 15000000000085)))
(assert (not (> (ite (>= (- I17 (- 5499999999995)) 0) (- I17 (- 5499999999995)) (- (- I17 (- 5499999999995)))) 100)))
(assert (not (or (> I12-e-y I13-y) (and (= I12-e-y I13-y) (> I12-e-m 3)) (and (= I12-e-y I13-y) (= I12-e-m 3) (> I12-e-d I13-d)))))
(assert (not (or (< I12-s-y (- I12-e-y 1)) (and (= I12-s-y (- I12-e-y 1)) (< I12-s-m I12-e-m)) (and (= I12-s-y (- I12-e-y 1)) (= I12-s-m I12-e-m) (< I12-s-d (+ I12-e-d 1))))))
(assert (not B31-F))
(assert B1-F)
(assert (not (and B1-F (< 2026 I1-y))))
(assert (not (and B1-F (< 2027 I1-y))))
(assert (not (distinct I41 (+ I37 (- 852983)))))
(assert (not (distinct I41 (* I29 100))))
(push 1)
(assert B35-F)
(set-info :status sat)
(check-sat)
(push 1)
(assert B33-F)
(set-info :status unsat)
(check-sat)
(pop 1)
(push 1)
(assert B38-F)
(set-info :status sat)
(check-sat)
(push 1)
(assert B34-F)
(set-info :status unsat)
(check-sat)
(pop 1)
(push 1)
(assert B36-F)
(set-info :status sat)
(check-sat)
(push 1)
(assert B40-F)
(set-info :status sat)
(check-sat)
(push 1)
(assert B1-F)
(set-info :status sat)
(check-sat)
(push 1)
(assert B31-F)
(set-info :status unsat)
(check-sat)
(pop 1)
(push 1)
(assert B44-F)
(set-info :status sat)
(check-sat)
(push 1)
(assert B43-F)
(set-info :status sat)
(check-sat)
(push 1)
(assert B39-F)
(set-info :status sat)
(check-sat)
(push 1)
(assert B28-F)
(set-info :status sat)
(check-sat)
(push 1)
(assert B37-F)
(set-info :status sat)
(check-sat)
(exit)

